\-------------
\Objective: 
\-------------
Minimize
1.5555555555555554 L_2 + 1.5555555555555554 L_3 + 0.1 d_1

\-------------
\Constraints: 
\-------------
Subject To
a_0_1 + a_1_1 + a_2_1 + a_3_1 - d_1 = 0
b_1 >= 0
b_1 - d_1 <= 0
z_0_2 - l_2 <= 0
z_1_2 - l_2 <= 0
z_2_2 - l_2 <= 0
z_3_2 - l_2 <= 0
z_4_2 - l_2 <= 0
z_5_2 - l_2 <= 0
z_6_2 - l_2 <= 0
z_7_2 - l_2 <= 0
z_8_2 - l_2 <= 0
z_9_2 - l_2 <= 0
z_10_2 - l_2 <= 0
z_11_2 - l_2 <= 0
z_12_2 - l_2 <= 0
z_13_2 - l_2 <= 0
z_0_2 + z_1_2 + z_2_2 + z_3_2 + z_4_2 + z_5_2 + z_6_2 + z_7_2 + z_8_2 + z_9_2 + z_10_2 + z_11_2 + z_12_2 + z_13_2 - 1 l_2 >= 0
z_0_3 - l_3 <= 0
z_1_3 - l_3 <= 0
z_2_3 - l_3 <= 0
z_3_3 - l_3 <= 0
z_4_3 - l_3 <= 0
z_5_3 - l_3 <= 0
z_6_3 - l_3 <= 0
z_7_3 - l_3 <= 0
z_8_3 - l_3 <= 0
z_9_3 - l_3 <= 0
z_10_3 - l_3 <= 0
z_11_3 - l_3 <= 0
z_12_3 - l_3 <= 0
z_13_3 - l_3 <= 0
z_0_3 + z_1_3 + z_2_3 + z_3_3 + z_4_3 + z_5_3 + z_6_3 + z_7_3 + z_8_3 + z_9_3 + z_10_3 + z_11_3 + z_12_3 + z_13_3 - 1 l_3 >= 0
z_0_2 + z_0_3 = 1
z_1_2 + z_1_3 = 1
z_2_2 + z_2_3 = 1
z_3_2 + z_3_3 = 1
z_4_2 + z_4_3 = 1
z_5_2 + z_5_3 = 1
z_6_2 + z_6_3 = 1
z_7_2 + z_7_3 = 1
z_8_2 + z_8_3 = 1
z_9_2 + z_9_3 = 1
z_10_2 + z_10_3 = 1
z_11_2 + z_11_3 = 1
z_12_2 + z_12_3 = 1
z_13_2 + z_13_3 = 1
0.0 a_0_1 + 0.0 a_1_1 + 0.0 a_2_1 + 0.0 a_3_1 - b_1 + 2.0 z_0_2 <= 1.5
0.0 a_0_1 + 0.0 a_1_1 + 0.0 a_2_1 + 1.0 a_3_1 - b_1 + 2.0 z_1_2 <= 1.5
0.5 a_0_1 + 0.0 a_1_1 + 0.0 a_2_1 + 0.0 a_3_1 - b_1 + 2.0 z_2_2 <= 1.5
1.0 a_0_1 + 0.5 a_1_1 + 0.0 a_2_1 + 0.0 a_3_1 - b_1 + 2.0 z_3_2 <= 1.5
1.0 a_0_1 + 1.0 a_1_1 + 1.0 a_2_1 + 0.0 a_3_1 - b_1 + 2.0 z_4_2 <= 1.5
1.0 a_0_1 + 1.0 a_1_1 + 1.0 a_2_1 + 1.0 a_3_1 - b_1 + 2.0 z_5_2 <= 1.5
0.5 a_0_1 + 1.0 a_1_1 + 1.0 a_2_1 + 1.0 a_3_1 - b_1 + 2.0 z_6_2 <= 1.5
0.0 a_0_1 + 0.5 a_1_1 + 0.0 a_2_1 + 0.0 a_3_1 - b_1 + 2.0 z_7_2 <= 1.5
0.0 a_0_1 + 1.0 a_1_1 + 1.0 a_2_1 + 0.0 a_3_1 - b_1 + 2.0 z_8_2 <= 1.5
1.0 a_0_1 + 0.5 a_1_1 + 1.0 a_2_1 + 0.0 a_3_1 - b_1 + 2.0 z_9_2 <= 1.5
0.0 a_0_1 + 0.5 a_1_1 + 1.0 a_2_1 + 1.0 a_3_1 - b_1 + 2.0 z_10_2 <= 1.5
0.5 a_0_1 + 0.5 a_1_1 + 0.0 a_2_1 + 1.0 a_3_1 - b_1 + 2.0 z_11_2 <= 1.5
0.5 a_0_1 + 0.0 a_1_1 + 1.0 a_2_1 + 0.0 a_3_1 - b_1 + 2.0 z_12_2 <= 1.5
1.0 a_0_1 + 0.5 a_1_1 + 0.0 a_2_1 + 1.0 a_3_1 - b_1 + 2.0 z_13_2 <= 1.5
0.0 a_0_1 + 0.0 a_1_1 + 0.0 a_2_1 + 0.0 a_3_1 - b_1 - z_0_3 >= -1
0.0 a_0_1 + 0.0 a_1_1 + 0.0 a_2_1 + 1.0 a_3_1 - b_1 - z_1_3 >= -1
0.5 a_0_1 + 0.0 a_1_1 + 0.0 a_2_1 + 0.0 a_3_1 - b_1 - z_2_3 >= -1
1.0 a_0_1 + 0.5 a_1_1 + 0.0 a_2_1 + 0.0 a_3_1 - b_1 - z_3_3 >= -1
1.0 a_0_1 + 1.0 a_1_1 + 1.0 a_2_1 + 0.0 a_3_1 - b_1 - z_4_3 >= -1
1.0 a_0_1 + 1.0 a_1_1 + 1.0 a_2_1 + 1.0 a_3_1 - b_1 - z_5_3 >= -1
0.5 a_0_1 + 1.0 a_1_1 + 1.0 a_2_1 + 1.0 a_3_1 - b_1 - z_6_3 >= -1
0.0 a_0_1 + 0.5 a_1_1 + 0.0 a_2_1 + 0.0 a_3_1 - b_1 - z_7_3 >= -1
0.0 a_0_1 + 1.0 a_1_1 + 1.0 a_2_1 + 0.0 a_3_1 - b_1 - z_8_3 >= -1
1.0 a_0_1 + 0.5 a_1_1 + 1.0 a_2_1 + 0.0 a_3_1 - b_1 - z_9_3 >= -1
0.0 a_0_1 + 0.5 a_1_1 + 1.0 a_2_1 + 1.0 a_3_1 - b_1 - z_10_3 >= -1
0.5 a_0_1 + 0.5 a_1_1 + 0.0 a_2_1 + 1.0 a_3_1 - b_1 - z_11_3 >= -1
0.5 a_0_1 + 0.0 a_1_1 + 1.0 a_2_1 + 0.0 a_3_1 - b_1 - z_12_3 >= -1
1.0 a_0_1 + 0.5 a_1_1 + 0.0 a_2_1 + 1.0 a_3_1 - b_1 - z_13_3 >= -1
N_0_2 - 1.0 z_0_2 - 1.0 z_1_2 - 0.0 z_2_2 - 0.0 z_3_2 - 0.0 z_4_2 - 1.0 z_5_2 - 0.0 z_6_2 - 1.0 z_7_2 - 0.0 z_8_2 - 0.0 z_9_2 - 0.0 z_10_2 - 0.0 z_11_2 - 0.0 z_12_2 - 1.0 z_13_2 = 0
N_0_3 - 1.0 z_0_3 - 1.0 z_1_3 - 0.0 z_2_3 - 0.0 z_3_3 - 0.0 z_4_3 - 1.0 z_5_3 - 0.0 z_6_3 - 1.0 z_7_3 - 0.0 z_8_3 - 0.0 z_9_3 - 0.0 z_10_3 - 0.0 z_11_3 - 0.0 z_12_3 - 1.0 z_13_3 = 0
N_1_2 - 0.0 z_0_2 - 0.0 z_1_2 - 1.0 z_2_2 - 1.0 z_3_2 - 1.0 z_4_2 - 0.0 z_5_2 - 1.0 z_6_2 - 0.0 z_7_2 - 1.0 z_8_2 - 1.0 z_9_2 - 1.0 z_10_2 - 1.0 z_11_2 - 1.0 z_12_2 - 0.0 z_13_2 = 0
N_1_3 - 0.0 z_0_3 - 0.0 z_1_3 - 1.0 z_2_3 - 1.0 z_3_3 - 1.0 z_4_3 - 0.0 z_5_3 - 1.0 z_6_3 - 0.0 z_7_3 - 1.0 z_8_3 - 1.0 z_9_3 - 1.0 z_10_3 - 1.0 z_11_3 - 1.0 z_12_3 - 0.0 z_13_3 = 0
N_2 - z_0_2 - z_1_2 - z_2_2 - z_3_2 - z_4_2 - z_5_2 - z_6_2 - z_7_2 - z_8_2 - z_9_2 - z_10_2 - z_11_2 - z_12_2 - z_13_2 = 0
N_3 - z_0_3 - z_1_3 - z_2_3 - z_3_3 - z_4_3 - z_5_3 - z_6_3 - z_7_3 - z_8_3 - z_9_3 - z_10_3 - z_11_3 - z_12_3 - z_13_3 = 0
c_0_2 + c_1_2 - l_2 = 0
c_0_3 + c_1_3 - l_3 = 0
L_2 - N_2 + N_0_2 - 14 c_0_2 >= -14
L_2 - N_2 + N_0_2 - 14 c_0_2 <= 0
L_2 - N_2 + N_1_2 - 14 c_1_2 >= -14
L_2 - N_2 + N_1_2 - 14 c_1_2 <= 0
L_2 >= 0
L_3 - N_3 + N_0_3 - 14 c_0_3 >= -14
L_3 - N_3 + N_0_3 - 14 c_0_3 <= 0
L_3 - N_3 + N_1_3 - 14 c_1_3 >= -14
L_3 - N_3 + N_1_3 - 14 c_1_3 <= 0
L_3 >= 0

\-------------
\Variables: 
\-------------
Binaries
a_0_1 a_1_1 a_2_1 a_3_1 c_0_2 c_0_3 c_1_2 c_1_3 d_1 l_2 l_3 z_0_2 z_0_3 z_10_2 z_10_3 z_11_2 z_11_3 z_12_2 z_12_3 z_13_2 z_13_3 z_1_2 z_1_3 z_2_2 z_2_3 z_3_2 z_3_3 z_4_2 z_4_3 z_5_2 z_5_3 z_6_2 z_6_3 z_7_2 z_7_3 z_8_2 z_8_3 z_9_2 z_9_3
Generals
N_0_2 N_0_3 N_1_2 N_1_3 N_2 N_3
End
